Academic license - for non-commercial use only
Gurobi Optimizer version 9.0.3 build v9.0.3rc0 (mac64)
Optimize a model with 175196 rows, 160320 columns and 920780 nonzeros
Model fingerprint: 0x22c146e6
Variable types: 0 continuous, 160320 integer (160320 binary)
Coefficient statistics:
  Matrix range     [1e+00, 1e+00]
  Objective range  [1e+01, 1e+05]
  Bounds range     [1e+00, 1e+00]
  RHS range        [1e+00, 1e+03]
Presolve removed 20 rows and 20 columns
Presolve time: 2.35s
Presolved: 175176 rows, 160300 columns, 920740 nonzeros
Variable types: 0 continuous, 160300 integer (160300 binary)
Found heuristic solution: objective 878324.00000

Concurrent LP optimizer: dual simplex and barrier
Showing barrier log only...

Root barrier log...

Ordering time: 0.06s

Barrier statistics:
 Dense cols : 160
 AA' NZ     : 8.027e+05
 Factor NZ  : 3.695e+06 (roughly 170 MBytes of memory)
 Factor Ops : 1.996e+08 (less than 1 second per iteration)
 Threads    : 3

                  Objective                Residual
Iter       Primal          Dual         Primal    Dual     Compl     Time
   0   9.73780691e+07 -1.22619259e+05  1.11e+02 0.00e+00  2.53e+03     5s
   1   1.16733873e+06 -3.38616375e+07  2.41e-01 5.20e+03  7.98e+01     6s
   2   1.04098364e+06 -1.36544206e+06  5.59e-02 2.92e+02  5.15e+00     6s
   3   1.02419074e+06  1.81671442e+05  4.49e-02 8.34e+01  1.75e+00     6s
   4   8.90447271e+05  5.90337323e+05  1.27e-03 2.56e+01  6.30e-01     6s
   5   8.52255354e+05  7.07259213e+05  5.93e-04 1.08e+01  3.03e-01     6s
   6   8.39452369e+05  7.39218959e+05  4.57e-04 6.83e+00  2.09e-01     7s
   7   8.30902970e+05  7.69238645e+05  3.77e-04 3.35e+00  1.27e-01     7s
   8   8.21556966e+05  7.77787733e+05  2.90e-04 2.01e+00  9.00e-02     7s
   9   8.14526834e+05  7.84107793e+05  2.21e-04 1.17e+00  6.23e-02     7s
  10   8.07297854e+05  7.86574021e+05  1.52e-04 7.91e-01  4.24e-02     7s
  11   8.02694484e+05  7.88291425e+05  1.07e-04 5.25e-01  2.94e-02     8s
  12   8.00700902e+05  7.89181587e+05  8.75e-05 3.87e-01  2.35e-02     8s
  13   7.99386038e+05  7.89641992e+05  7.42e-05 3.17e-01  1.99e-02     8s
  14   7.97904980e+05  7.90176462e+05  6.03e-05 2.38e-01  1.58e-02     8s
  15   7.96468883e+05  7.90613083e+05  4.63e-05 1.74e-01  1.19e-02     8s
  16   7.95440880e+05  7.90988410e+05  3.59e-05 1.20e-01  9.06e-03     8s
  17   7.94553944e+05  7.91134159e+05  2.70e-05 9.98e-02  6.97e-03     9s
  18   7.94002278e+05  7.91320432e+05  2.15e-05 7.44e-02  5.46e-03     9s
  19   7.93471528e+05  7.91428795e+05  1.62e-05 5.97e-02  4.16e-03     9s
  20   7.93122251e+05  7.91551662e+05  1.26e-05 4.43e-02  3.20e-03     9s
  21   7.92807460e+05  7.91635471e+05  9.45e-06 3.28e-02  2.39e-03     9s
  22   7.92511823e+05  7.91699171e+05  6.51e-06 2.39e-02  1.66e-03     9s
  23   7.92409405e+05  7.91755817e+05  5.48e-06 1.65e-02  1.33e-03    10s
  24   7.92286437e+05  7.91783514e+05  4.34e-06 1.25e-02  1.02e-03    10s
  25   7.92257940e+05  7.91792848e+05  4.07e-06 1.12e-02  9.45e-04    10s
  26   7.92140432e+05  7.91817460e+05  2.80e-06 7.79e-03  6.57e-04    10s
  27   7.92060499e+05  7.91835753e+05  1.98e-06 5.30e-03  4.57e-04    10s
  28   7.92017640e+05  7.91846352e+05  1.51e-06 3.91e-03  3.48e-04    10s
  29   7.91959869e+05  7.91864197e+05  8.85e-07 1.63e-03  1.94e-04    11s
  30   7.91886930e+05  7.91874540e+05  1.05e-07 7.11e-05  2.50e-05    11s
  31   7.91876350e+05  7.91876160e+05  9.93e-10 5.65e-06  3.85e-07    11s
  32   7.91876222e+05  7.91876222e+05  7.12e-10 5.34e-08  5.31e-12    11s

Barrier solved model in 32 iterations and 11.05 seconds
Optimal objective 7.91876222e+05


Root crossover log...

   41742 DPushes remaining with DInf 0.0000000e+00                11s
       0 DPushes remaining with DInf 0.0000000e+00                12s

    1223 PPushes remaining with PInf 0.0000000e+00                12s
       0 PPushes remaining with PInf 0.0000000e+00                12s

  Push phase complete: Pinf 0.0000000e+00, Dinf 1.2983570e-10     12s


Root simplex log...

Iteration    Objective       Primal Inf.    Dual Inf.      Time
    9651    7.9187622e+05   0.000000e+00   0.000000e+00     12s

Solved with barrier

Root relaxation: objective 7.918762e+05, 9651 iterations, 7.63 seconds

    Nodes    |    Current Node    |     Objective Bounds      |     Work
 Expl Unexpl |  Obj  Depth IntInf | Incumbent    BestBd   Gap | It/Node Time

     0     0 791876.222    0 12519 878324.000 791876.222  9.84%     -   16s
H    0     0                    809213.00000 791876.222  2.14%     -   18s
H    0     0                    806814.00000 791876.222  1.85%     -   30s
     0     0 791886.837    0 12901 806814.000 791886.837  1.85%     -   39s
H    0     0                    799118.00000 791886.837  0.90%     -   40s
     0     0 791886.926    0 12536 799118.000 791886.926  0.90%     -   44s
     0     0 791903.999    0 12975 799118.000 791903.999  0.90%     -   55s
     0     0 791904.994    0 12537 799118.000 791904.994  0.90%     -   59s
     0     0 791915.444    0 12919 799118.000 791915.444  0.90%     -   71s
     0     0 791915.629    0 12919 799118.000 791915.629  0.90%     -   76s
     0     0 791915.648    0 12919 799118.000 791915.648  0.90%     -   78s
     0     0 791924.442    0 12990 799118.000 791924.442  0.90%     -   90s
H    0     0                    797941.00000 791924.442  0.75%     -  131s
     0     0 791924.896    0 12984 797941.000 791924.896  0.75%     -  133s
     0     0 791924.962    0 12983 797941.000 791924.962  0.75%     -  133s
     0     0 791931.531    0 13027 797941.000 791931.531  0.75%     -  143s
     0     0 791931.531    0 13031 797941.000 791931.531  0.75%     -  145s
     0     0 791941.554    0 12990 797941.000 791941.554  0.75%     -  154s
     0     0 791942.303    0 12984 797941.000 791942.303  0.75%     -  156s
     0     0 791942.311    0 12986 797941.000 791942.311  0.75%     -  157s
     0     0 791950.121    0 12601 797941.000 791950.121  0.75%     -  167s
     0     0 791950.939    0 13046 797941.000 791950.939  0.75%     -  170s
     0     0 791951.185    0 13046 797941.000 791951.185  0.75%     -  171s
     0     0 791951.200    0 13022 797941.000 791951.200  0.75%     -  172s
     0     0 791959.887    0 12615 797941.000 791959.887  0.75%     -  181s
     0     0 791960.007    0 13046 797941.000 791960.007  0.75%     -  183s
     0     0 791960.015    0 13063 797941.000 791960.015  0.75%     -  184s
     0     0 791960.016    0 13048 797941.000 791960.016  0.75%     -  187s
     0     0 791960.016    0 13047 797941.000 791960.016  0.75%     -  189s
     0     0 791960.016    0 13038 797941.000 791960.016  0.75%     -  195s
H    0     0                    797922.00000 791960.016  0.75%     -  216s
     0     2 791960.016    0 13038 797922.000 791960.016  0.75%     -  224s
     1     4 792309.081    1 12862 797922.000 791960.162  0.75% 24730  289s

Cutting planes:
  Gomory: 4
  Zero half: 232

Explored 3 nodes (72712 simplex iterations) in 300.11 seconds
Thread count was 8 (of 8 available processors)

Solution count 6: 797922 797941 799118 ... 878324

Time limit reached
Best objective 7.979220000000e+05, best bound 7.923090810694e+05, gap 0.7034%

User-callback calls 27503, time in user-callback 0.23 sec
Solution written to /Users/mdeboute/Desktop/Etudes/Master/M2/S9/GOPP/Projet/multi-period-flp/solution/instMulti_I20_J1000_T8_1_result.txt
